(set-logic ALL)
(declare-var x (_ BitVec 32))
(declare-var n (_ BitVec 32))
(declare-var m (_ BitVec 32))
(declare-var x! (_ BitVec 32))
(declare-var n! (_ BitVec 32))
(declare-var m! (_ BitVec 32))
(synth-fun inv-f((parameter0 (_ BitVec 32))(parameter1 (_ BitVec 32))(parameter2 (_ BitVec 32)))Bool) 
(constraint (=> (and (= x (_ bv1 32)) (= m (_ bv1 32)) )(inv-f x n m )))
(constraint (=> (and (inv-f x n m ) (or (and (and (and (bvult x n) (= x! (bvadd x (_ bv1 32))) ) (= n! n) ) (= m! m) ) (and (and (and (bvult x n) (= x! (bvadd x (_ bv1 32))) ) (= n! n) ) (= m! x) ) ) )(inv-f x! n! m! )))
(constraint (=> (inv-f x n m )(not (and (and (bvuge x n) (bvugt n (_ bv1 32)) ) (or (bvule n m) (bvult m (_ bv1 32)) ) ))))
(check-synth)

